p tw 166 194
1 2
2 79
3 14
3 13
4 5
5 6
6 7
7 8
7 17
8 9
9 10
10 11
11 12
12 13
13 15
14 25
15 16
15 119
16 74
17 18
18 19
18 40
19 20
20 21
21 22
22 23
23 24
23 29
24 26
25 36
25 67
26 27
27 28
28 29
28 38
29 30
30 31
31 32
32 33
33 34
34 35
35 37
36 71
37 38
37 40
38 39
39 40
40 41
41 42
41 43
42 43
42 52
43 44
44 45
45 46
46 48
47 58
48 49
49 50
50 51
51 52
51 80
52 53
53 54
54 55
55 56
56 57
57 59
58 69
59 60
60 61
60 76
61 62
62 63
63 64
64 65
65 66
66 67
67 68
68 70
68 76
69 76
70 74
71 72
72 73
73 74
74 75
76 77
77 78
78 80
79 90
80 81
81 82
82 83
83 84
84 85
85 86
85 96
86 87
87 88
88 89
89 91
90 101
91 92
91 94
92 93
93 113
94 95
95 96
96 97
97 98
98 99
99 100
100 102
101 112
102 103
103 104
104 105
105 106
106 107
106 108
107 74
108 109
109 110
110 111
111 113
111 82
112 123
113 114
114 115
114 40
115 116
116 117
117 118
118 119
119 120
120 121
120 17
121 122
121 17
122 124
123 134
123 47
124 125
125 126
126 127
127 128
128 129
129 130
129 17
130 131
131 132
132 133
133 135
134 145
135 136
135 138
136 137
137 140
138 139
139 140
140 141
141 142
142 143
143 144
144 146
145 156
145 105
146 147
146 148
147 148
148 149
149 150
150 151
150 153
151 152
152 17
153 154
154 155
155 157
155 166
156 3
157 158
158 159
159 160
159 166
160 161
161 162
162 163
163 164
163 166
164 165
165 17
166 4
